sing20210516.12
TTAA 66121 48698
99004 30645 31504 00062 29850 16001 92753 23625 12005
85489 19220 28508 70142 11836 32002 50589 03159 10509
40762 13729 10509 30975 27727 33506 25103 37967 03006
20253 49738 01506 15434 66942 09005
88999
77999=
